p cnf 7230 16
-5755 -5917 -6049 0
-5531 -5907 -6047 0
-5751 -5905 -6045 0
5755 -6050 0
5531 -6048 0
5751 -6046 0
6051 6052 0
5919 -6052 0
-5919 -6051 0
6049 6050 0
6047 6048 0
6045 6046 0
5917 -6050 0
5907 -6048 0
5905 -6046 0
5921 -6054 0
